[2026-03-01T23:47:52] Logging to: /run/media/saveas/Secondary-Storage/Masters/CS234/CS234_Reinforcement_Learning/Final Project/CS234_Final_Project/results/trajectory_optimization/nlp/TRACK1_280m_Obstacles/N120/run_trajopt_demo_output.log
======================================================================
IPOPT TRAJECTORY OPTIMIZATION DEMO (SINGLE STAGE)
======================================================================

1. Loading track: /run/media/saveas/Secondary-Storage/Masters/CS234/CS234_Reinforcement_Learning/Final Project/CS234_Final_Project/maps/TRACK1_280m_Obstacles.mat
   Track length: 280.0 m

2. Creating vehicle model...
   Vehicle: SingleTrackModel(VW_Golf_GTI, weight_transfer=enabled)

3. Loaded obstacles from map: 4

4. Setup:
   N = 120
   ds = 2.33 m
   Obstacle subsamples/segment = 11
   Obstacle enforce midpoints = True
   Obstacle use slack = False
   Track buffer = 0.00 m
   lambda_u = 0.005
   vehicle_radius_m = 0.00
   eps_s = 0.100, eps_kappa = 0.050
   Solver path = Python/CasADi (IPOPT)

======================================================================
SINGLE STAGE: COMBINED OBJECTIVE (ACCEPTANCE-GATED)
======================================================================
Acceptance gates: success=True, max_slack<=0.000e+00, min_clearance>=-0.0050 m
Acceptance policy: practical epsilon mode (allows tiny negative dense clearance).
Initializer: obstacle_aware_init=True, sigma=8.00 m, margin=0.50 m

Attempt 1/4: baseline
  N=120, ds=2.333 m, subsamples=11, obstacle_clearance_m=0.300
Initializer: obstacle-aware e(s) enabled (sigma=8.00m, margin=0.30m)
Exception of type: DYNAMIC_LIBRARY_FAILURE in file "Common/IpLibraryLoader.cpp" at line 72:
 Exception message: libhsl.so: cannot open shared object file: No such file or directory

EXIT: Library loading failure.
      solver  :   t_proc      (avg)   t_wall      (avg)    n_eval
       total  | 333.00us (333.00us) 338.00us (338.00us)         1
Solver failed with ipopt.linear_solver=ma57: Error in Opti::solve [OptiNode] at .../casadi/core/optistack.cpp:217:
.../casadi/core/optistack_internal.cpp:1338: Assertion "return_success(accept_limit)" failed:
Solver failed. You may use opti.debug.value to investigate the latest values of variables. return_status is 'Invalid_Option'
Retrying with IPOPT default linear solver.

******************************************************************************
This program contains Ipopt, a library for large-scale nonlinear optimization.
 Ipopt is released as open source code under the Eclipse Public License (EPL).
         For more information visit https://github.com/coin-or/Ipopt
******************************************************************************

This is Ipopt version 3.14.11, running with linear solver MUMPS 5.4.1.

Number of nonzeros in equality constraint Jacobian...:    12225
Number of nonzeros in inequality constraint Jacobian.:     3676
Number of nonzeros in Lagrangian Hessian.............:     4600

Total number of variables............................:     1210
                     variables with only lower bounds:        0
                variables with lower and upper bounds:        0
                     variables with only upper bounds:        0
Total number of equality constraints.................:      970
Total number of inequality constraints...............:     2253
        inequality constraints with only lower bounds:     1890
   inequality constraints with lower and upper bounds:        0
        inequality constraints with only upper bounds:      363

iter    objective    inf_pr   inf_du lg(mu)  ||d||  lg(rg) alpha_du alpha_pr  ls
   0  2.8000000e+01 4.06e-01 1.77e+00  -1.0 0.00e+00    -  0.00e+00 0.00e+00   0
   1  2.7643590e+01 3.41e+00 1.82e+03  -1.0 8.16e+00   2.0 6.46e-01 1.00e+00H  1
   2  2.7645519e+01 3.41e+00 4.20e+03  -1.0 4.54e-01   3.3 3.24e-01 2.50e-01h  3
   3  2.7647643e+01 3.77e+00 6.48e+03  -1.0 7.39e-01   3.8 1.99e-01 7.37e-02h  4
   4  2.7658844e+01 2.97e+00 5.63e+03  -1.0 7.84e-01   3.3 8.27e-01 2.50e-01h  3
   5  2.7710666e+01 4.80e+00 1.88e+05  -1.0 6.39e-01   3.7 9.93e-01 1.00e+00h  1
   6  2.7737931e+01 3.15e+00 3.71e+04  -1.0 8.66e-01   3.2 1.00e+00 1.00e+00h  1
   7  2.7737723e+01 3.59e+00 2.48e+04  -1.0 7.65e+00   3.7 4.61e-02 3.91e-02h  3
   8  2.7737347e+01 3.51e+00 1.16e+05  -1.0 1.58e+00   5.0 5.15e-01 9.96e-02h  1
   9  2.7737333e+01 2.51e+00 5.30e+05  -1.0 1.22e+00   4.5 8.18e-03 1.00e+00f  1
iter    objective    inf_pr   inf_du lg(mu)  ||d||  lg(rg) alpha_du alpha_pr  ls
  10  2.7737345e+01 1.89e+00 2.36e+06  -1.0 8.88e-01   4.9 1.00e+00 1.00e+00h  1
  11  2.7741383e+01 1.38e+00 5.20e+06  -1.0 5.12e-01   6.3 1.00e+00 5.00e-01h  2
  12  2.7757657e+01 6.16e-01 1.08e+06  -1.0 3.46e-01   5.8 9.17e-01 1.00e+00h  1
  13  2.7797756e+01 1.73e-01 1.65e+05  -1.0 3.42e-01   5.3 1.00e+00 1.00e+00h  1
  14  2.7802067e+01 8.69e-03 3.27e+04  -1.0 4.00e-02   5.7 1.00e+00 1.00e+00h  1
  15  2.7802092e+01 1.36e-05 5.24e+02  -1.0 9.35e-04   5.3 1.00e+00 1.00e+00h  1
  16  2.7802092e+01 1.81e-10 5.43e-01  -1.0 9.04e-06   4.8 1.00e+00 1.00e+00h  1
  17  2.7802092e+01 6.87e-11 1.07e-01  -1.7 5.39e-06   4.3 1.00e+00 1.00e+00h  1
  18  2.7802090e+01 2.58e-11 1.55e-02  -2.5 2.33e-06   3.8 1.00e+00 1.00e+00h  1
  19  2.7802086e+01 6.95e-11 1.01e-02  -3.8 4.56e-06   3.3 1.00e+00 1.00e+00h  1
iter    objective    inf_pr   inf_du lg(mu)  ||d||  lg(rg) alpha_du alpha_pr  ls
  20  2.7802072e+01 6.23e-10 1.01e-02  -3.8 1.37e-05   2.9 1.00e+00 1.00e+00h  1
  21  2.7802031e+01 5.54e-09 1.01e-02  -3.8 4.10e-05   2.4 1.00e+00 1.00e+00h  1
  22  2.7801908e+01 4.83e-08 1.01e-02  -3.8 1.23e-04   1.9 1.00e+00 1.00e+00h  1
  23  2.7801539e+01 3.94e-07 1.01e-02  -3.8 3.69e-04   1.4 1.00e+00 1.00e+00h  1
  24  2.7800432e+01 2.71e-06 1.01e-02  -3.8 1.11e-03   1.0 1.00e+00 1.00e+00h  1
  25  2.7797117e+01 1.61e-05 1.01e-02  -3.8 3.31e-03   0.5 1.00e+00 1.00e+00h  1
  26  2.7787191e+01 1.28e-04 1.01e-02  -3.8 9.93e-03   0.0 1.00e+00 1.00e+00h  1
  27  2.7757522e+01 7.95e-04 1.00e-02  -3.8 2.97e-02  -0.5 1.00e+00 1.00e+00h  1
  28  2.7669249e+01 4.58e-03 9.95e-03  -3.8 8.83e-02  -0.9 1.00e+00 1.00e+00h  1
  29  2.7410170e+01 7.33e-02 9.74e-03  -3.8 2.59e-01  -1.4 1.00e+00 1.00e+00h  1
iter    objective    inf_pr   inf_du lg(mu)  ||d||  lg(rg) alpha_du alpha_pr  ls
  30  2.7316668e+01 2.38e-02 9.37e-03  -3.8 9.36e-02  -1.0 1.00e+00 1.00e+00h  1
  31  2.7037019e+01 2.95e-01 9.35e-03  -3.8 2.80e-01  -1.5 1.00e+00 1.00e+00h  1
  32  2.6245759e+01 1.25e+00 2.64e-02  -3.8 7.93e-01  -2.0 1.00e+00 1.00e+00h  1
  33  2.5539839e+01 9.31e-01 1.86e-02  -3.8 1.96e+00  -2.4 1.00e+00 3.61e-01h  1
  34  2.4654637e+01 9.29e-01 3.57e-02  -3.8 4.38e+00  -2.9 1.00e+00 2.02e-01h  1
  35  2.3521281e+01 1.54e+00 2.89e-02  -3.8 7.90e+00  -3.4 3.37e-01 1.44e-01f  1
  36  2.2530490e+01 3.73e+00 2.29e-02  -3.8 5.40e+00  -3.0 7.47e-01 2.64e-01h  1
  37  2.2468457e+01 3.54e+00 4.79e-02  -3.8 4.47e+00  -2.5 1.00e+00 5.10e-02h  1
  38  2.0463323e+01 1.38e+01 1.41e-01  -3.8 1.55e+01  -3.0 2.68e-01 5.98e-01h  1
  39  2.0429658e+01 1.29e+01 1.32e-01  -3.8 9.16e+00  -2.6 7.44e-02 6.67e-02h  1
iter    objective    inf_pr   inf_du lg(mu)  ||d||  lg(rg) alpha_du alpha_pr  ls
  40  2.0430092e+01 1.28e+01 1.31e-01  -3.8 7.45e+00  -2.2 4.23e-02 7.88e-03h  1
  41  2.0440921e+01 1.24e+01 9.20e-01  -3.8 9.00e+00  -1.7 8.29e-01 3.50e-02h  1
  42  2.0447261e+01 1.22e+01 1.05e+00  -3.8 8.42e+00  -1.3 7.45e-02 1.46e-02h  1
  43  2.0457283e+01 1.17e+01 1.04e+00  -3.8 9.12e+00  -1.8 2.19e-01 3.62e-02h  1
  44  2.0461371e+01 1.14e+01 7.81e-01  -3.8 8.09e+00  -2.3 5.30e-01 2.89e-02h  1
  45  2.0389037e+01 9.81e+00 1.37e-01  -3.8 7.99e+00  -2.7 1.00e+00 1.37e-01h  1
  46  1.9445838e+01 9.27e+00 6.10e-01  -3.8 6.70e+00  -3.2 7.51e-01 5.34e-01h  1
  47  1.9390236e+01 6.29e+00 4.85e-01  -3.8 5.11e+00  -2.8 1.01e-01 2.03e-01h  1
  48  1.9460248e+01 3.25e+00 3.05e-01  -3.8 3.12e+00  -2.4 1.96e-01 3.96e-01h  1
  49  1.9450212e+01 3.16e+00 2.96e-01  -3.8 6.13e+00  -2.8 2.38e-01 2.96e-02h  1
iter    objective    inf_pr   inf_du lg(mu)  ||d||  lg(rg) alpha_du alpha_pr  ls
  50  1.9148530e+01 3.81e+00 2.15e-01  -3.8 7.93e+00  -3.3 7.82e-02 2.88e-01h  1
  51  1.9179599e+01 3.31e+00 1.88e-01  -3.8 1.81e+00  -2.0 3.05e-01 1.32e-01h  1
  52  1.9193497e+01 2.50e+00 1.44e-01  -3.8 2.11e+00  -2.5 1.00e+00 2.39e-01h  1
  53  1.8939715e+01 1.31e+00 4.69e-02  -3.8 2.79e+00  -2.9 8.58e-01 7.47e-01h  1
  54  1.8962728e+01 1.93e+00 2.91e-02  -3.8 6.44e-01  -1.6 3.24e-01 5.77e-01h  1
  55  1.8963718e+01 1.63e+00 2.46e-02  -3.8 1.09e+00  -2.1 3.82e-02 1.55e-01h  1
  56  1.8932872e+01 1.20e+00 1.83e-02  -3.8 1.88e+00  -2.6 2.52e-01 2.64e-01h  1
  57  1.8919790e+01 1.16e+00 2.21e-02  -3.8 2.46e+00  -3.0 1.74e-01 3.33e-02h  1
  58  1.8818079e+01 1.03e+00 2.02e-02  -3.8 5.15e+00  -3.5 1.58e-01 1.14e-01h  1
  59  1.8717252e+01 1.97e+00 3.68e-01  -3.8 4.77e+01  -4.0 1.05e-02 6.06e-02h  1
iter    objective    inf_pr   inf_du lg(mu)  ||d||  lg(rg) alpha_du alpha_pr  ls
  60  1.8701012e+01 1.73e+00 3.25e-01  -3.8 1.82e+00  -2.7 1.00e+00 1.19e-01h  1
  61  1.8560955e+01 2.53e+00 2.05e-01  -3.8 4.39e+00  -3.1 5.52e-01 4.26e-01h  1
  62  1.8438028e+01 2.03e+00 1.61e-01  -3.8 4.26e+00  -3.6 2.46e-01 2.05e-01h  1
  63  1.7965061e+01 5.49e+00 9.29e-01  -3.8 1.09e+01  -4.1 7.84e-01 5.05e-01h  1
  64  1.7963386e+01 5.33e+00 9.02e-01  -3.8 1.06e+01  -1.9 2.35e-02 2.74e-02H  1
  65  1.7986407e+01 2.61e+00 2.11e-01  -3.8 1.63e+00  -2.3 4.17e-03 7.29e-01h  1
  66  1.7986759e+01 2.54e+00 2.05e-01  -3.8 6.87e-01  -0.1 1.83e-01 2.74e-02h  1
  67  1.7994917e+01 2.77e+00 2.53e-01  -3.8 8.14e-01  -0.6 1.03e-01 4.42e-01h  1
  68  1.7995704e+01 2.67e+00 1.79e-01  -3.8 1.65e+00  -0.2 6.51e-02 3.53e-02h  1
  69  1.7997414e+01 2.47e+00 1.76e-01  -3.8 1.30e+00  -0.6 1.19e-01 7.49e-02h  1
iter    objective    inf_pr   inf_du lg(mu)  ||d||  lg(rg) alpha_du alpha_pr  ls
  70  1.8000785e+01 2.55e+00 3.70e+00  -3.8 1.66e+00  -1.1 7.77e-02 1.09e-01h  1
  71  1.8001724e+01 2.48e+00 3.59e+00  -3.8 1.03e+00  -0.7 5.55e-01 2.94e-02h  1
  72  1.8004638e+01 2.37e+00 3.45e+00  -3.8 3.07e+00  -1.2 1.67e-02 3.87e-02h  1
  73  1.8008608e+01 2.12e+00 3.10e+00  -3.8 1.51e+00  -1.6 1.93e-01 1.03e-01h  1
  74  1.8020265e+01 1.40e+00 2.09e+00  -3.8 1.40e+00  -2.1 1.00e+00 3.43e-01h  1
  75  1.8046764e+01 3.42e-01 7.60e-01  -3.8 8.34e-01  -1.7 5.96e-01 7.68e-01h  1
  76  1.8055166e+01 6.27e-01 1.71e-01  -3.8 1.78e-01  -1.3 1.00e+00 1.00e+00h  1
  77  1.8041913e+01 1.17e-01 4.91e-02  -3.8 1.57e-01  -1.7 1.00e+00 1.00e+00h  1
  78  1.8024040e+01 7.74e-01 3.18e-02  -3.8 2.27e-01  -2.2 1.00e+00 1.00e+00h  1
  79  1.8020088e+01 1.24e+00 1.92e-01  -3.8 1.47e-01  -1.8 1.00e+00 1.00e+00h  1
iter    objective    inf_pr   inf_du lg(mu)  ||d||  lg(rg) alpha_du alpha_pr  ls
  80  1.8010012e+01 3.93e+00 4.79e-01  -3.8 5.71e-01  -1.4 1.00e+00 5.82e-01h  1
  81  1.8011444e+01 1.02e+00 9.29e-01  -3.8 5.54e-01  -0.0 1.86e-01 5.72e-01h  1
  82  1.8018956e+01 6.91e-01 2.51e-01  -3.8 2.16e-01  -0.5 8.76e-03 1.00e+00h  1
  83  1.8019377e+01 5.03e-01 6.71e-01  -3.8 2.13e-01  -0.1 1.00e+00 2.50e-01h  3
  84  1.8022360e+01 5.92e-02 5.70e-01  -3.8 6.58e-02  -0.6 1.00e+00 1.00e+00h  1
  85  1.8020895e+01 1.03e-02 1.86e-02  -3.8 3.08e-02  -1.1 1.00e+00 1.00e+00h  1
  86  1.8016062e+01 4.84e-01 2.41e-01  -3.8 7.19e-02  -1.5 1.00e+00 1.00e+00h  1
  87  1.8007566e+01 7.89e-01 1.33e-01  -3.8 2.29e-01  -2.0 1.00e+00 1.00e+00h  1
  88  1.7986997e+01 2.49e+00 1.23e-01  -3.8 1.42e+00  -2.5 1.00e+00 1.00e+00h  1
  89  1.7957863e+01 1.77e+00 4.90e-01  -3.8 1.20e+00  -3.0 5.90e-01 5.58e-01h  1
iter    objective    inf_pr   inf_du lg(mu)  ||d||  lg(rg) alpha_du alpha_pr  ls
  90  1.7962621e+01 6.66e-01 5.16e-01  -3.8 2.41e-01  -0.7 3.75e-03 1.00e+00h  1
  91  1.7969412e+01 8.63e-01 1.65e-01  -3.8 1.41e-01  -1.2 1.00e+00 1.00e+00h  1
  92  1.7963882e+01 7.06e-01 6.23e-02  -3.8 2.10e-01  -1.7 1.00e+00 1.00e+00h  1
  93  1.7952109e+01 7.65e-01 2.81e-02  -3.8 2.57e-01  -2.2 1.00e+00 1.00e+00h  1
  94  1.7929813e+01 8.66e-01 6.36e-02  -3.8 4.40e-01  -2.6 1.00e+00 1.00e+00h  1
  95  1.7931781e+01 7.35e-01 2.22e-01  -3.8 8.47e-02  -0.4 1.00e+00 1.00e+00h  1
  96  1.7935078e+01 4.68e-01 1.74e-01  -3.8 1.70e-01  -0.9 1.00e+00 1.00e+00H  1
  97  1.7935129e+01 2.66e-01 2.59e-01  -3.8 2.50e-01  -1.4 1.00e+00 5.00e-01h  2
  98  1.7934644e+01 4.86e-01 1.24e+00  -3.8 4.94e-02  -0.0 1.00e+00 1.00e+00h  1
  99  1.7935062e+01 1.35e-01 1.53e+00  -3.8 3.38e-02   0.4 1.00e+00 1.00e+00h  1
iter    objective    inf_pr   inf_du lg(mu)  ||d||  lg(rg) alpha_du alpha_pr  ls
 100  1.7934262e+01 1.45e-01 2.33e+00  -3.8 3.80e-02  -0.1 1.00e+00 1.00e+00h  1
 101  1.7934404e+01 2.89e-02 1.13e+00  -3.8 3.30e-03   0.3 1.00e+00 1.00e+00h  1
 102  1.7934218e+01 1.77e-03 9.29e-02  -3.8 5.50e-03  -0.1 1.00e+00 1.00e+00h  1
 103  1.7933715e+01 1.51e-03 5.53e-03  -3.8 1.26e-02  -0.6 1.00e+00 1.00e+00h  1
 104  1.7932441e+01 2.08e-02 1.29e-02  -3.8 3.51e-02  -1.1 1.00e+00 1.00e+00h  1
 105  1.7930261e+01 5.56e-02 2.45e-02  -3.8 5.53e-02  -1.6 1.00e+00 1.00e+00h  1
 106  1.7924982e+01 6.63e-01 3.46e-02  -3.8 1.08e-01  -2.0 1.00e+00 1.00e+00h  1
 107  1.7922081e+01 5.38e-01 3.72e-01  -3.8 3.15e-01  -0.7 1.00e+00 1.00e+00h  1
 108  1.7922053e+01 2.32e-01 3.40e-01  -3.8 1.65e-01  -0.3 1.00e+00 5.00e-01h  2
 109  1.7925893e+01 3.98e-01 3.89e-01  -3.8 1.04e-01   0.1 1.00e+00 1.00e+00H  1
iter    objective    inf_pr   inf_du lg(mu)  ||d||  lg(rg) alpha_du alpha_pr  ls
 110  1.7926116e+01 3.69e-01 2.07e+00  -3.8 8.12e-02  -0.3 1.00e+00 1.00e+00h  1
 111  1.7926290e+01 1.28e-01 6.50e-01  -3.8 2.55e-02   0.1 1.00e+00 1.00e+00h  1
 112  1.7926441e+01 8.03e-02 2.17e-01  -3.8 1.01e-02   0.5 1.00e+00 1.00e+00h  1
 113  1.7926625e+01 1.72e-02 3.53e-01  -3.8 1.67e-02   0.9 1.00e+00 1.00e+00h  1
 114  1.7926616e+01 1.91e-04 9.03e-03  -3.8 3.10e-03   0.5 1.00e+00 1.00e+00h  1
 115  1.7926468e+01 3.04e-04 3.16e-03  -3.8 3.04e-03  -0.0 1.00e+00 1.00e+00h  1
 116  1.7926046e+01 2.13e-03 2.70e-03  -3.8 8.35e-03  -0.5 1.00e+00 1.00e+00h  1
 117  1.7925010e+01 7.00e-02 2.10e-02  -3.8 2.40e-02  -1.0 1.00e+00 1.00e+00h  1
 118  1.7923202e+01 4.84e-02 6.61e-02  -3.8 6.12e-02  -1.4 1.00e+00 1.00e+00h  1
 119  1.7919433e+01 6.59e-01 8.05e-02  -3.8 7.75e-02  -1.9 1.00e+00 1.00e+00h  1
iter    objective    inf_pr   inf_du lg(mu)  ||d||  lg(rg) alpha_du alpha_pr  ls
 120  1.7915291e+01 1.60e+00 2.13e-01  -3.8 7.13e-01  -1.5 1.00e+00 1.00e+00h  1
 121  1.7902704e+01 8.43e-01 1.46e-01  -3.8 1.09e+00  -2.0 4.45e-01 6.05e-01h  1
 122  1.7901998e+01 1.05e+00 1.29e-01  -3.8 4.34e-01  -1.5 4.67e-03 1.00e+00h  1
 123  1.7902874e+01 7.89e-01 1.73e-01  -3.8 2.29e-01  -2.0 1.00e+00 2.50e-01h  3
 124  1.7898864e+01 1.49e-01 3.86e-02  -3.8 5.57e-01  -2.5 1.00e+00 1.00e+00h  1
 125  1.7869501e+01 1.40e+00 4.27e-02  -3.8 6.22e-01  -3.0 1.00e+00 1.00e+00h  1
 126  1.7865278e+01 1.57e+00 9.41e-02  -3.8 4.22e-01  -1.6 1.00e+00 1.00e+00h  1
 127  1.7859958e+01 1.21e+00 5.03e-01  -3.8 4.71e-01  -2.1 1.00e+00 1.00e+00h  1
 128  1.7867881e+01 6.52e-01 5.80e-01  -3.8 4.30e-01  -0.8 1.00e+00 1.00e+00h  1
 129  1.7870070e+01 5.77e-01 6.57e-01  -3.8 2.62e-01  -0.4 1.00e+00 1.00e+00h  1
iter    objective    inf_pr   inf_du lg(mu)  ||d||  lg(rg) alpha_du alpha_pr  ls
 130  1.7870776e+01 2.83e-01 6.96e-01  -3.8 1.14e-01  -0.8 1.00e+00 5.00e-01h  2
 131  1.7871319e+01 5.54e-01 2.61e-01  -3.8 5.86e-02  -0.4 1.00e+00 1.00e+00h  1
 132  1.7869543e+01 8.88e-01 6.65e-02  -3.8 1.58e-01  -0.9 1.00e+00 1.00e+00h  1
 133  1.7869195e+01 6.16e-01 1.03e-01  -3.8 1.61e-01  -0.5 1.00e+00 1.00e+00h  1
 134  1.7868997e+01 2.40e-01 1.63e+00  -3.8 1.18e-01  -0.0 1.00e+00 1.00e+00h  1
 135  1.7869107e+01 4.57e-02 5.46e-01  -3.8 2.00e-02   0.4 1.00e+00 1.00e+00h  1
 136  1.7869096e+01 3.23e-03 1.10e-01  -3.8 1.24e-03   0.8 1.00e+00 1.00e+00h  1
 137  1.7868991e+01 9.17e-05 3.05e-03  -3.8 1.36e-03   0.3 1.00e+00 1.00e+00h  1
 138  1.7868681e+01 6.27e-04 2.82e-03  -3.8 3.97e-03  -0.1 1.00e+00 1.00e+00h  1
 139  1.7867832e+01 1.39e-02 2.60e-03  -3.8 1.10e-02  -0.6 1.00e+00 1.00e+00h  1
iter    objective    inf_pr   inf_du lg(mu)  ||d||  lg(rg) alpha_du alpha_pr  ls
 140  1.7865925e+01 9.48e-02 6.60e-03  -3.8 2.85e-02  -1.1 1.00e+00 1.00e+00h  1
 141  1.7863429e+01 6.39e-01 1.98e-02  -3.8 7.02e-02  -1.6 1.00e+00 1.00e+00h  1
 142  1.7863576e+01 1.43e-01 6.19e-02  -3.8 4.18e-02  -0.3 1.00e+00 1.00e+00h  1
 143  1.7863700e+01 8.66e-02 4.04e-02  -3.8 2.48e-02  -0.7 1.00e+00 1.00e+00h  1
 144  1.7863272e+01 6.88e-02 1.76e-02  -3.8 2.07e-02  -1.2 1.00e+00 1.00e+00h  1
 145  1.7862833e+01 5.06e-01 1.39e-01  -3.8 2.63e-02  -0.8 1.00e+00 1.00e+00h  1
 146  1.7862561e+01 3.24e-01 7.27e-02  -3.8 3.57e-02  -0.4 1.00e+00 1.00e+00h  1
 147  1.7862955e+01 3.10e-02 3.55e-02  -3.8 1.20e-02   0.1 1.00e+00 1.00e+00h  1
 148  1.7862920e+01 8.36e-03 7.98e-03  -3.8 5.77e-03  -0.4 1.00e+00 1.00e+00h  1
 149  1.7862614e+01 2.70e-02 1.14e-03  -3.8 8.68e-03  -0.9 1.00e+00 1.00e+00h  1
iter    objective    inf_pr   inf_du lg(mu)  ||d||  lg(rg) alpha_du alpha_pr  ls
 150  1.7861856e+01 5.52e-03 1.57e-03  -3.8 1.77e-02  -1.4 1.00e+00 1.00e+00h  1
 151  1.7859717e+01 1.06e-02 6.64e-04  -3.8 4.56e-02  -1.8 1.00e+00 1.00e+00h  1
 152  1.7853632e+01 2.07e-02 7.72e-04  -3.8 1.33e-01  -2.3 1.00e+00 1.00e+00h  1
 153  1.7836942e+01 3.32e-02 3.01e-03  -3.8 3.64e-01  -2.8 1.00e+00 1.00e+00h  1
 154  1.7794785e+01 1.70e-01 2.60e-03  -3.8 9.99e-01  -3.3 1.00e+00 1.00e+00h  1
 155  1.7711813e+01 6.27e-01 1.58e-02  -3.8 2.22e+00  -3.7 1.00e+00 1.00e+00h  1
 156  1.7716565e+01 3.55e-01 3.22e-01  -3.8 1.19e-01  -0.6 1.00e+00 7.64e-01h  1
 157  1.7719015e+01 1.10e-01 1.42e-01  -3.8 1.72e-01  -0.2 1.00e+00 1.00e+00h  1
 158  1.7719560e+01 7.37e-03 2.56e-02  -3.8 6.86e-02  -0.7 1.00e+00 1.00e+00h  1
 159  1.7718654e+01 6.34e-03 9.64e-03  -3.8 2.01e-02  -1.1 1.00e+00 1.00e+00h  1
iter    objective    inf_pr   inf_du lg(mu)  ||d||  lg(rg) alpha_du alpha_pr  ls
 160  1.7717479e+01 3.98e-02 3.19e-03  -3.8 4.92e-02  -1.6 1.00e+00 1.00e+00h  1
 161  1.7714898e+01 7.64e-02 3.83e-03  -3.8 1.50e-01  -2.1 1.00e+00 1.00e+00h  1
 162  1.7708151e+01 1.58e-01 1.59e-03  -3.8 3.90e-01  -2.6 1.00e+00 1.00e+00h  1
 163  1.7690934e+01 2.71e-01 1.67e-03  -3.8 9.46e-01  -3.0 1.00e+00 1.00e+00h  1
 164  1.7647208e+01 3.42e+00 3.64e-03  -3.8 2.46e+00  -3.5 1.00e+00 1.00e+00h  1
 165  1.7647304e+01 7.59e-01 1.83e-02  -3.8 8.83e-01  -2.2 6.48e-01 1.00e+00h  1
 166  1.7643532e+01 3.32e-01 2.80e-03  -3.8 2.68e-01  -2.7 1.00e+00 1.00e+00h  1
 167  1.7630140e+01 3.27e-01 2.77e-03  -3.8 5.90e-01  -3.1 1.00e+00 1.00e+00h  1
 168  1.7594835e+01 3.41e-01 3.00e-03  -3.8 1.03e+00  -3.6 1.00e+00 1.00e+00h  1
 169  1.7579530e+01 2.65e-01 8.63e-03  -3.8 2.23e+00  -4.1 1.00e+00 2.48e-01h  1
iter    objective    inf_pr   inf_du lg(mu)  ||d||  lg(rg) alpha_du alpha_pr  ls
 170  1.7464778e+01 5.28e-01 5.86e-03  -3.8 5.17e+00  -4.6 1.00e+00 1.00e+00h  1
 171  1.7376237e+01 3.89e+00 1.37e-02  -3.8 1.31e+01  -5.1 1.32e-01 6.32e-01h  1
 172  1.7179281e+01 1.59e+00 3.64e-02  -3.8 3.00e+01  -5.5 2.47e-01 8.24e-01h  1
 173  1.7185166e+01 1.35e+00 1.29e-01  -3.8 9.70e-01  -1.5 2.66e-01 1.97e-01h  1
 174  1.7190763e+01 1.12e+00 9.65e-01  -3.8 7.77e-01  -0.2 3.54e-01 1.66e-01h  1
 175  1.7204355e+01 1.02e+00 1.03e+01  -3.8 8.23e-01   0.3 1.00e+00 2.05e-01h  1
 176  1.7235621e+01 6.96e-01 5.06e+00  -3.8 5.17e-01  -0.2 5.14e-01 6.39e-01h  1
 177  1.7261672e+01 5.82e-01 1.24e+00  -3.8 2.42e-01  -0.7 1.00e+00 1.00e+00h  1
 178  1.7262100e+01 2.38e-01 9.93e-01  -3.8 1.23e-01   0.6 5.74e-01 1.00e+00h  1
 179  1.7261704e+01 3.97e-02 2.65e-01  -3.8 2.17e-02   0.2 1.00e+00 1.00e+00h  1
iter    objective    inf_pr   inf_du lg(mu)  ||d||  lg(rg) alpha_du alpha_pr  ls
 180  1.7260173e+01 3.38e-03 3.57e-02  -3.8 1.85e-02  -0.3 1.00e+00 1.00e+00h  1
 181  1.7255716e+01 6.47e-03 8.35e-03  -3.8 5.13e-02  -0.8 1.00e+00 1.00e+00h  1
 182  1.6964375e+01 2.37e+00 5.09e-02  -3.8 2.36e+02    -  1.31e-01 2.10e-01f  1
 183  1.6964840e+01 2.36e+00 1.05e-01  -3.8 1.31e+00  -1.3 1.31e-01 4.47e-03h  1
 184  1.6983212e+01 1.96e+00 3.50e-01  -3.8 1.31e+00  -1.8 4.16e-01 1.73e-01h  1
 185  1.7004294e+01 1.57e+00 6.37e-01  -3.8 1.08e+00  -1.3 3.94e-01 2.03e-01h  1
 186  1.7015986e+01 1.38e+00 4.91e+00  -3.8 8.62e-01  -0.9 1.00e+00 1.23e-01h  1
 187  1.7063065e+01 6.42e-01 1.05e+00  -3.8 7.74e-01  -1.4 8.75e-01 5.44e-01h  1
 188  1.7103575e+01 1.58e-01 6.45e-01  -3.8 3.88e-01  -1.9 7.40e-01 1.00e+00h  1
 189  1.7092957e+01 6.42e-02 2.50e-01  -3.8 1.73e-01  -2.3 7.83e-01 1.00e+00h  1
iter    objective    inf_pr   inf_du lg(mu)  ||d||  lg(rg) alpha_du alpha_pr  ls
 190  1.7091203e+01 1.78e-02 2.91e-03  -3.8 6.98e-02  -1.9 1.00e+00 1.00e+00h  1
 191  1.7085442e+01 1.08e-02 6.26e-04  -3.8 1.30e-01  -2.4 1.00e+00 1.00e+00h  1
 192  1.7075914e+01 2.31e-02 1.36e-03  -3.8 2.30e-01  -2.9 1.00e+00 1.00e+00h  1
 193  1.7064501e+01 4.36e-01 8.08e-01  -3.8 4.65e-01  -3.3 1.00e+00 1.00e+00h  1
 194  1.7033474e+01 3.96e-01 7.27e-01  -3.8 1.02e+02    -  1.62e-01 1.04e-01h  1
 195  1.7009106e+01 3.42e-01 6.23e-01  -3.8 3.02e+01    -  4.43e-01 1.49e-01h  1
 196  1.7005102e+01 2.96e-01 5.34e-01  -3.8 5.61e+00    -  2.50e-01 1.48e-01h  1
 197  1.6998739e+01 1.37e-01 2.08e-01  -3.8 1.90e+01    -  2.01e-01 7.71e-01h  1
 198  1.6999519e+01 7.45e-02 9.57e-02  -3.8 9.02e+00    -  1.00e+00 6.08e-01h  1
 199  1.7003811e+01 1.28e-02 1.86e-02  -3.8 3.29e+00    -  1.00e+00 9.93e-01h  1
iter    objective    inf_pr   inf_du lg(mu)  ||d||  lg(rg) alpha_du alpha_pr  ls
 200  1.7005055e+01 7.45e-04 2.28e-03  -3.8 9.68e-01    -  1.00e+00 1.00e+00h  1
 201  1.7004986e+01 4.33e-05 6.10e-05  -3.8 3.10e-01    -  1.00e+00 1.00e+00h  1
 202  1.7000105e+01 4.73e-02 6.07e-03  -5.7 1.25e+00    -  9.33e-01 5.15e-01h  1
 203  1.6997284e+01 1.82e-02 3.14e-03  -5.7 1.47e+00    -  9.67e-01 7.13e-01h  1
 204  1.6996691e+01 3.63e-02 3.13e-03  -5.7 3.56e-01    -  1.00e+00 6.88e-01h  1
 205  1.6996454e+01 1.45e-01 4.77e-03  -5.7 1.86e-01    -  1.00e+00 1.00e+00h  1
 206  1.6996357e+01 2.22e-01 4.26e-03  -5.7 1.24e-01    -  1.00e+00 1.00e+00h  1
 207  1.6995905e+01 1.46e+00 4.79e-02  -5.7 6.34e-01    -  1.00e+00 1.00e+00h  1
 208  1.6984472e+01 7.39e-01 1.77e-02  -5.7 2.38e+00    -  6.53e-01 7.41e-01h  1
 209  1.6989530e+01 8.33e-01 2.15e-02  -5.7 4.85e-01  -2.9 8.83e-01 1.00e+00h  1
iter    objective    inf_pr   inf_du lg(mu)  ||d||  lg(rg) alpha_du alpha_pr  ls
 210  1.6991892e+01 6.66e-02 2.86e-03  -5.7 1.07e-01  -2.5 1.00e+00 1.00e+00h  1
 211  1.6994087e+01 3.27e-02 1.43e-03  -5.7 1.05e+00    -  1.00e+00 5.00e-01h  2
 212  1.6995259e+01 3.33e-02 7.16e-04  -5.7 5.54e-01    -  1.00e+00 5.00e-01h  2
 213  1.6996470e+01 4.88e-02 3.26e-03  -5.7 2.99e-01    -  1.00e+00 1.00e+00h  1
 214  1.6996470e+01 2.69e-02 5.01e-04  -5.7 3.46e-02    -  1.00e+00 1.00e+00h  1
 215  1.6996599e+01 1.40e-02 3.29e-03  -5.7 5.65e-02    -  1.00e+00 5.93e-01H  1
 216  1.6996929e+01 4.98e-03 4.94e-03  -5.7 8.73e-01    -  8.31e-01 1.00e+00H  1
 217  1.6996787e+01 9.00e-03 4.98e-03  -5.7 1.18e-01  -3.0 1.00e+00 1.00e+00H  1
 218  1.6996514e+01 4.18e-03 2.64e-03  -5.7 3.02e+00    -  1.00e+00 5.22e-01H  1
 219  1.6996438e+01 7.73e-03 8.17e-04  -5.7 1.10e+00    -  1.00e+00 1.00e+00h  1
iter    objective    inf_pr   inf_du lg(mu)  ||d||  lg(rg) alpha_du alpha_pr  ls
 220  1.6996483e+01 6.97e-03 5.31e-04  -5.7 1.46e-01    -  1.00e+00 1.00e+00h  1
 221  1.6996486e+01 8.28e-03 2.92e-04  -5.7 1.19e-02    -  1.00e+00 1.00e+00h  1
 222  1.6996493e+01 6.00e-04 1.46e-03  -5.7 1.47e-02    -  1.00e+00 1.00e+00H  1
 223  1.6996482e+01 2.46e-02 5.77e-04  -5.7 1.03e-01    -  1.00e+00 1.00e+00h  1
 224  1.6996479e+01 4.99e-02 2.63e-03  -5.7 3.35e-02    -  1.00e+00 1.00e+00h  1
 225  1.6996471e+01 4.29e-02 6.89e-04  -5.7 3.92e-02    -  1.00e+00 1.00e+00h  1
 226  1.6996466e+01 4.00e-02 1.00e-03  -5.7 5.98e-02    -  1.00e+00 2.50e-01h  3
 227  1.6996483e+01 2.69e-04 2.88e-05  -5.7 7.23e-03    -  1.00e+00 1.00e+00h  1
 228  1.6996488e+01 6.85e-05 5.63e-06  -5.7 1.26e-03    -  1.00e+00 1.00e+00h  1
 229  1.6996488e+01 4.52e-06 2.96e-07  -5.7 4.42e-04    -  1.00e+00 1.00e+00h  1
iter    objective    inf_pr   inf_du lg(mu)  ||d||  lg(rg) alpha_du alpha_pr  ls
 230  1.6996417e+01 2.73e-05 4.29e-05  -7.0 5.75e-02    -  1.00e+00 9.45e-01h  1
 231  1.6996413e+01 3.17e-06 2.30e-07  -7.0 1.26e-02    -  1.00e+00 1.00e+00h  1
 232  1.6996413e+01 3.54e-08 6.37e-09  -7.0 4.68e-04    -  1.00e+00 1.00e+00h  1

Number of Iterations....: 232

                                   (scaled)                 (unscaled)
Objective...............:   1.6996412913679055e+01    1.6996412913679055e+01
Dual infeasibility......:   6.3703991201884049e-09    6.3703991201884049e-09
Constraint violation....:   3.5394108088837584e-08    3.5394108088837584e-08
Variable bound violation:   0.0000000000000000e+00    0.0000000000000000e+00
Complementarity.........:   9.2566478943994248e-08    9.2566478943994248e-08
Overall NLP error.......:   9.2566478943994248e-08    9.2566478943994248e-08


Number of objective function evaluations             = 290
Number of objective gradient evaluations             = 233
Number of equality constraint evaluations            = 290
Number of inequality constraint evaluations          = 290
Number of equality constraint Jacobian evaluations   = 233
Number of inequality constraint Jacobian evaluations = 233
Number of Lagrangian Hessian evaluations             = 232
Total seconds in IPOPT                               = 30.329

EXIT: Optimal Solution Found.
      solver  :   t_proc      (avg)   t_wall      (avg)    n_eval
       nlp_f  |   7.67ms ( 26.45us)   7.68ms ( 26.47us)       290
       nlp_g  |   1.12 s (  3.87ms)   1.13 s (  3.89ms)       290
  nlp_grad_f  |   9.85ms ( 42.11us)   9.90ms ( 42.32us)       234
  nlp_hess_l  |  18.81 s ( 81.09ms)  18.88 s ( 81.39ms)       232
   nlp_jac_g  |   5.69 s ( 24.33ms)   5.72 s ( 24.43ms)       234
       total  |  30.22 s ( 30.22 s)  30.33 s ( 30.33 s)         1
  Success: True
  Cost: 16.9964
  Iterations: 232
  Solve time: 43.45 s
  Max obstacle slack: 0.0000e+00
  Min obstacle clearance: 0.0002 m
  Accepted: True

Accepted attempt: baseline

Generating plots...
  Saved: /run/media/saveas/Secondary-Storage/Masters/CS234/CS234_Reinforcement_Learning/Final Project/CS234_Final_Project/results/trajectory_optimization/nlp/TRACK1_280m_Obstacles/N120/ipopt_single_stage_trajectory.png
  Saved: /run/media/saveas/Secondary-Storage/Masters/CS234/CS234_Reinforcement_Learning/Final Project/CS234_Final_Project/results/trajectory_optimization/nlp/TRACK1_280m_Obstacles/N120/ipopt_single_stage_states.png
  Saved: /run/media/saveas/Secondary-Storage/Masters/CS234/CS234_Reinforcement_Learning/Final Project/CS234_Final_Project/results/trajectory_optimization/nlp/TRACK1_280m_Obstacles/N120/ipopt_single_stage_controls.png

Generating animation...
  Saved: /run/media/saveas/Secondary-Storage/Masters/CS234/CS234_Reinforcement_Learning/Final Project/CS234_Final_Project/results/trajectory_optimization/nlp/TRACK1_280m_Obstacles/N120/ipopt_single_stage_animation.gif

======================================================================
SUMMARY
======================================================================
Selected attempt: baseline
Attempt                    N      Subs   Clear    Iters    Time [s]   Cost [s]   Max Sigma    Min Clear [m]  Accepted
-----------------------------------------------------------------------------------------------------------------------------
baseline                   120    11     0.300    232      43.45      16.9964    0.000e+00    0.0002         True

All outputs saved to: /run/media/saveas/Secondary-Storage/Masters/CS234/CS234_Reinforcement_Learning/Final Project/CS234_Final_Project/results/trajectory_optimization/nlp/TRACK1_280m_Obstacles/N120
